#######################################
### Exact MIP solver for the HHCRSP ###
#######################################
-- Instance file: new-instances/HHCRSP_75_15_89_0.4_C_RC.txt
-- Max threads: 4
-- Time limit: 999999 seconds
-- Use initial solution: No
Trivial flow violations prevented generating 20028 variables.
Model exported.
Version identifier: 20.1.0.0 | 2020-11-10 | 9bedb6d68
CPXPARAM_Threads                                 4
CPXPARAM_TimeLimit                               999999
Parallel mode: deterministic, using up to 4 threads for concurrent optimization:
 * Starting dual Simplex on 1 thread...
 * Starting Barrier on 3 threads...
Tried aggregator 1 time.
LP Presolve eliminated 3324 rows and 919 columns.
Reduced LP has 25328 rows, 24409 columns, and 253634 nonzeros.
Presolve time = 0.12 sec. (69.20 ticks)
Symmetry aggregator did 26344 additional substitutions.

Iteration log . . .
Iteration:     1   Dual objective     =             0.000000

Dual crossover.
  Dual:  Fixing 173 variables.
      172 DMoves:  Infeasibility  3.78586102e-14  Objective  1.79000000e+02
        0 DMoves:  Infeasibility  4.62963052e-14  Objective  1.79000000e+02
  Dual:  Pushed 10, exchanged 163.
  Primal:  Fixing 95 variables.
       94 PMoves:  Infeasibility  0.00000000e+00  Objective  1.79000000e+02
        0 PMoves:  Infeasibility  0.00000000e+00  Objective  1.79000000e+02
  Primal:  Pushed 60, exchanged 35.

Dual simplex solved model.


Solution status from MIP model:
-- Processing time: 0.21 sec.
-- Memory used: 87.1299 MB
-- Best bound: inf
-- Obj value: 179
-- Gap: inf%
-- Total distance: 537
-- Total tardiness: 0
-- Largest tardiness: 0
